data/lp_files/q3/64_2.lp
\ Model foo
\ LP format - for model browsing. Use MPS format to capture full model detail.
Minimize
  z
Subject To
 allocateEach[1]: x[1,1] + x[2,1] + x[3,1] + x[4,1] = 1
 allocateEach[2]: x[1,2] + x[2,2] + x[3,2] + x[4,2] = 1
 allocateEach[3]: x[1,3] + x[2,3] + x[3,3] + x[4,3] = 1
 allocateEach[4]: x[1,4] + x[2,4] + x[3,4] + x[4,4] = 1
 allocateAllCash: cashProportion[1] + cashProportion[2] + cashProportion[3]
   + cashProportion[4] = 1
 findWorstP[1,2]: z + 0.0637700875775869 cashProportion[1]
   - 0.0637700875775869 cashProportion[2] + 0.3533713119632684 x[1,1]
   + 0.3079244962163081 x[1,2] + 0.1916928832582263 x[1,3]
   + 0.0832412209846101 x[1,4] - 0.3533713119632684 x[2,1]
   - 0.3079244962163081 x[2,2] - 0.1916928832582263 x[2,3]
   - 0.0832412209846101 x[2,4] >= 0
 findWorstP[1,3]: z + 0.0637700875775869 cashProportion[1]
   - 0.0637700875775869 cashProportion[3] + 0.3533713119632684 x[1,1]
   + 0.3079244962163081 x[1,2] + 0.1916928832582263 x[1,3]
   + 0.0832412209846101 x[1,4] - 0.3533713119632684 x[3,1]
   - 0.3079244962163081 x[3,2] - 0.1916928832582263 x[3,3]
   - 0.0832412209846101 x[3,4] >= 0
 findWorstP[1,4]: z + 0.0637700875775869 cashProportion[1]
   - 0.0637700875775869 cashProportion[4] + 0.3533713119632684 x[1,1]
   + 0.3079244962163081 x[1,2] + 0.1916928832582263 x[1,3]
   + 0.0832412209846101 x[1,4] - 0.3533713119632684 x[4,1]
   - 0.3079244962163081 x[4,2] - 0.1916928832582263 x[4,3]
   - 0.0832412209846101 x[4,4] >= 0
 findWorstP[2,1]: z - 0.0975863639320799 cashProportion[1]
   + 0.0975863639320799 cashProportion[2] - 0.1699954459696832 x[1,1]
   - 0.2194392036952703 x[1,2] - 0.3680307071758507 x[1,3]
   - 0.144948279227116 x[1,4] + 0.1699954459696832 x[2,1]
   + 0.2194392036952703 x[2,2] + 0.3680307071758507 x[2,3]
   + 0.144948279227116 x[2,4] >= 0
 findWorstP[2,3]: z + 0.0975863639320799 cashProportion[2]
   - 0.0975863639320799 cashProportion[3] + 0.1699954459696832 x[2,1]
   + 0.2194392036952703 x[2,2] + 0.3680307071758507 x[2,3]
   + 0.144948279227116 x[2,4] - 0.1699954459696832 x[3,1]
   - 0.2194392036952703 x[3,2] - 0.3680307071758507 x[3,3]
   - 0.144948279227116 x[3,4] >= 0
 findWorstP[2,4]: z + 0.0975863639320799 cashProportion[2]
   - 0.0975863639320799 cashProportion[4] + 0.1699954459696832 x[2,1]
   + 0.2194392036952703 x[2,2] + 0.3680307071758507 x[2,3]
   + 0.144948279227116 x[2,4] - 0.1699954459696832 x[4,1]
   - 0.2194392036952703 x[4,2] - 0.3680307071758507 x[4,3]
   - 0.144948279227116 x[4,4] >= 0
 findWorstP[3,1]: z - 0.1243987394261072 cashProportion[1]
   + 0.1243987394261072 cashProportion[3] - 0.0187427434068668 x[1,1]
   - 0.0631116271355117 x[1,2] - 0.4436059047934982 x[1,3]
   - 0.3501409852380163 x[1,4] + 0.0187427434068668 x[3,1]
   + 0.0631116271355117 x[3,2] + 0.4436059047934982 x[3,3]
   + 0.3501409852380163 x[3,4] >= 0
 findWorstP[3,2]: z - 0.1243987394261072 cashProportion[2]
   + 0.1243987394261072 cashProportion[3] - 0.0187427434068668 x[2,1]
   - 0.0631116271355117 x[2,2] - 0.4436059047934982 x[2,3]
   - 0.3501409852380163 x[2,4] + 0.0187427434068668 x[3,1]
   + 0.0631116271355117 x[3,2] + 0.4436059047934982 x[3,3]
   + 0.3501409852380163 x[3,4] >= 0
 findWorstP[3,4]: z + 0.1243987394261072 cashProportion[3]
   - 0.1243987394261072 cashProportion[4] + 0.0187427434068668 x[3,1]
   + 0.0631116271355117 x[3,2] + 0.4436059047934982 x[3,3]
   + 0.3501409852380163 x[3,4] - 0.0187427434068668 x[4,1]
   - 0.0631116271355117 x[4,2] - 0.4436059047934982 x[4,3]
   - 0.3501409852380163 x[4,4] >= 0
 findWorstP[4,1]: z - 0.0486176384792403 cashProportion[1]
   + 0.0486176384792403 cashProportion[4] - 0.3216218844196674 x[1,1]
   - 0.042297345476939 x[1,2] - 0.2947849479791268 x[1,3]
   - 0.2926781836450264 x[1,4] + 0.3216218844196674 x[4,1]
   + 0.042297345476939 x[4,2] + 0.2947849479791268 x[4,3]
   + 0.2926781836450264 x[4,4] >= 0
 findWorstP[4,2]: z - 0.0486176384792403 cashProportion[2]
   + 0.0486176384792403 cashProportion[4] - 0.3216218844196674 x[2,1]
   - 0.042297345476939 x[2,2] - 0.2947849479791268 x[2,3]
   - 0.2926781836450264 x[2,4] + 0.3216218844196674 x[4,1]
   + 0.042297345476939 x[4,2] + 0.2947849479791268 x[4,3]
   + 0.2926781836450264 x[4,4] >= 0
 findWorstP[4,3]: z - 0.0486176384792403 cashProportion[3]
   + 0.0486176384792403 cashProportion[4] - 0.3216218844196674 x[3,1]
   - 0.042297345476939 x[3,2] - 0.2947849479791268 x[3,3]
   - 0.2926781836450264 x[3,4] + 0.3216218844196674 x[4,1]
   + 0.042297345476939 x[4,2] + 0.2947849479791268 x[4,3]
   + 0.2926781836450264 x[4,4] >= 0
Bounds
 z <= 1
 -infinity <= cashProportion[1] <= 1
 -infinity <= cashProportion[2] <= 1
 -infinity <= cashProportion[3] <= 1
 -infinity <= cashProportion[4] <= 1
Binaries
 x[1,1] x[1,2] x[1,3] x[1,4] x[2,1] x[2,2] x[2,3] x[2,4] x[3,1] x[3,2]
 x[3,3] x[3,4] x[4,1] x[4,2] x[4,3] x[4,4]
End
